60
3 2 1
4 0 2
5 2 5
5 4 2
6 0 1
6 5 5
7 0 5
7 2 2
7 5 3
7 6 4
8 1 3
8 2 5
8 3 5
8 4 1
8 5 4
8 6 5
9 1 3
9 2 4
9 7 4
10 4 3
10 5 1
10 7 5
10 9 2
11 0 4
11 1 3
11 3 1
11 4 4
11 5 4
11 9 1
12 1 3
12 4 4
12 6 5
12 7 2
12 9 2
12 10 2
12 11 5
13 2 5
13 3 2
13 6 1
13 7 5
13 10 4
13 11 3
14 0 4
14 1 5
14 2 2
14 5 5
14 7 3
14 9 3
14 10 2
15 1 3
15 5 2
15 7 4
15 10 4
15 11 4
15 12 3
15 13 1
16 0 4
16 1 3
16 3 2
16 5 2
16 6 5
16 7 1
16 10 4
16 12 3
16 13 5
16 15 2
17 1 1
17 2 2
17 3 4
17 10 5
17 11 3
17 13 4
17 14 4
17 15 5
18 1 2
18 4 2
18 6 1
18 8 3
18 11 1
18 13 5
18 15 1
18 16 1
19 0 4
19 1 1
19 4 4
19 5 3
19 9 3
19 13 5
19 15 3
19 16 1
19 17 5
20 3 3
20 7 3
20 8 1
20 11 1
20 12 1
20 13 5
20 14 2
20 17 1
20 19 4
21 1 2
21 4 1
21 7 2
21 8 3
21 9 3
21 13 2
21 14 4
21 15 4
21 16 2
21 17 5
22 3 1
22 4 5
22 5 3
22 6 5
22 7 5
22 10 2
22 11 4
22 13 3
22 14 1
22 15 1
22 16 5
22 21 5
23 0 4
23 3 2
23 5 4
23 6 1
23 8 4
23 10 3
23 13 3
23 14 5
23 15 3
23 18 2
23 21 4
23 22 2
24 2 4
24 4 3
24 6 3
24 8 1
24 9 2
24 11 4
24 12 3
24 13 2
24 14 2
24 21 2
24 22 1
24 23 4
25 0 5
25 1 3
25 3 1
25 6 2
25 8 3
25 9 4
25 10 3
25 12 4
25 16 1
25 19 3
25 21 2
26 0 4
26 1 2
26 2 2
26 3 2
26 8 1
26 9 1
26 11 4
26 12 3
26 14 5
26 15 3
26 17 1
26 18 4
26 19 1
26 20 3
26 25 1
27 0 5
27 1 1
27 2 2
27 3 3
27 4 4
27 7 5
27 8 4
27 9 2
27 11 2
27 14 4
27 15 5
27 19 5
27 24 3
27 25 2
27 26 1
28 0 4
28 1 3
28 2 3
28 6 2
28 7 2
28 8 3
28 9 5
28 14 5
28 15 3
28 16 5
28 17 2
28 19 2
28 20 2
28 21 2
28 22 2
28 23 3
28 25 2
29 1 3
29 2 1
29 3 2
29 7 2
29 8 4
29 10 2
29 11 1
29 14 5
29 19 5
29 20 3
29 22 4
29 23 1
29 24 1
29 25 1
29 26 1
29 28 3
30 0 2
30 1 4
30 3 3
30 8 4
30 9 1
30 11 4
30 13 3
30 14 2
30 15 2
30 16 5
30 18 4
30 20 1
30 27 5
31 3 4
31 4 3
31 5 1
31 7 2
31 8 1
31 11 3
31 13 1
31 14 5
31 15 2
31 16 5
31 19 5
31 20 3
31 22 1
31 24 5
31 25 5
31 28 4
31 29 2
31 30 1
32 0 1
32 1 3
32 2 4
32 3 5
32 5 2
32 6 1
32 7 4
32 10 2
32 11 2
32 12 5
32 13 1
32 15 4
32 16 2
32 18 2
32 19 5
32 21 1
32 22 4
32 25 5
32 28 1
32 29 3
32 30 3
32 31 1
33 1 5
33 2 5
33 3 4
33 7 4
33 9 3
33 10 2
33 12 4
33 13 5
33 18 4
33 19 1
33 22 5
33 23 2
33 27 2
33 29 1
33 30 2
34 2 2
34 3 3
34 6 3
34 10 3
34 11 3
34 14 4
34 24 5
34 30 1
34 33 4
35 0 1
35 2 3
35 8 4
35 10 2
35 11 2
35 19 1
35 20 3
35 21 2
35 22 4
35 25 3
35 27 1
35 29 3
35 30 3
35 33 3
36 9 4
36 12 2
36 16 1
36 19 4
36 21 1
36 23 1
36 24 5
36 25 4
36 28 1
36 32 3
36 33 2
36 35 4
37 0 3
37 1 2
37 4 5
37 7 4
37 9 3
37 11 3
37 14 3
37 15 1
37 16 1
37 17 1
37 19 1
37 21 1
37 23 5
37 24 3
37 25 2
37 26 1
37 27 4
37 29 3
37 36 1
38 0 2
38 1 5
38 2 3
38 3 4
38 5 4
38 6 1
38 7 2
38 8 3
38 9 2
38 10 3
38 13 1
38 15 3
38 21 4
38 22 4
38 26 3
38 27 1
38 28 5
38 29 4
38 33 5
38 34 2
38 36 2
38 37 1
39 0 2
39 1 3
39 3 4
39 4 5
39 5 2
39 6 4
39 8 5
39 10 1
39 14 3
39 15 2
39 18 3
39 19 3
39 21 3
39 22 5
39 23 5
39 27 2
39 29 4
39 30 4
39 31 1
39 34 4
39 35 2
39 38 5
40 5 5
40 7 3
40 9 1
40 10 3
40 17 5
40 20 1
40 23 4
40 25 2
40 27 3
40 28 2
40 30 5
40 31 5
40 32 2
40 37 2
40 38 1
41 0 5
41 2 2
41 8 5
41 9 5
41 12 1
41 15 3
41 16 4
41 17 1
41 18 5
41 19 3
41 24 2
41 29 1
41 30 4
41 33 1
41 34 5
41 36 2
41 38 2
41 40 4
42 0 4
42 2 5
42 3 1
42 9 3
42 13 4
42 14 2
42 15 5
42 17 5
42 18 5
42 20 3
42 21 2
42 23 2
42 25 3
42 26 1
42 27 4
42 28 4
42 29 2
42 33 1
42 36 4
42 37 3
42 39 2
42 40 3
42 41 4
43 1 3
43 2 2
43 3 5
43 6 4
43 7 5
43 8 4
43 10 3
43 12 2
43 14 5
43 15 4
43 16 1
43 19 2
43 21 2
43 22 5
43 23 3
43 24 4
43 27 5
43 29 5
43 34 1
43 35 2
43 36 4
43 38 5
43 41 5
44 0 1
44 2 4
44 4 3
44 5 2
44 8 4
44 13 3
44 15 5
44 17 5
44 18 3
44 19 4
44 20 1
44 22 2
44 23 2
44 25 1
44 26 4
44 27 5
44 28 5
44 29 5
44 30 5
44 31 2
44 32 5
44 34 2
44 36 4
45 0 5
45 2 1
45 3 5
45 5 5
45 6 3
45 8 4
45 9 4
45 10 5
45 12 1
45 13 4
45 14 1
45 18 2
45 20 3
45 21 1
45 23 2
45 26 1
45 27 2
45 29 4
45 30 1
45 31 2
45 34 4
45 37 5
45 40 5
45 43 1
46 0 3
46 4 5
46 7 1
46 9 1
46 11 1
46 16 2
46 19 2
46 20 5
46 22 5
46 24 3
46 25 1
46 28 1
46 32 3
46 34 2
46 35 2
46 36 1
46 40 3
46 41 4
46 44 3
46 45 1
47 1 1
47 2 2
47 3 4
47 5 2
47 6 1
47 7 3
47 9 5
47 10 1
47 11 2
47 13 4
47 15 5
47 16 4
47 19 5
47 20 4
47 22 1
47 23 2
47 25 2
47 29 2
47 30 2
47 31 4
47 32 1
47 33 1
47 34 1
47 36 1
47 37 5
47 38 1
47 40 1
47 45 3
47 46 3
48 0 2
48 2 3
48 3 2
48 5 2
48 6 3
48 7 3
48 9 4
48 12 3
48 15 4
48 16 4
48 17 4
48 18 1
48 19 2
48 20 5
48 22 2
48 23 3
48 26 3
48 27 4
48 29 2
48 30 3
48 31 4
48 32 1
48 33 4
48 35 3
48 37 1
48 39 2
48 41 4
48 43 1
49 0 1
49 1 3
49 2 5
49 5 3
49 7 2
49 9 5
49 10 3
49 13 2
49 15 5
49 16 4
49 19 3
49 22 3
49 23 2
49 25 3
49 26 3
49 27 1
49 28 3
49 29 4
49 31 5
49 32 5
49 33 4
49 35 2
49 36 2
49 38 1
49 45 1
50 0 2
50 3 2
50 5 5
50 6 2
50 7 1
50 10 1
50 11 5
50 12 2
50 13 4
50 14 1
50 15 4
50 16 1
50 18 1
50 19 4
50 20 4
50 22 5
50 27 4
50 28 4
50 30 4
50 31 1
50 32 1
50 34 4
50 35 2
50 38 2
50 39 2
50 40 5
50 41 3
50 43 1
50 48 2
51 0 3
51 1 5
51 3 5
51 7 2
51 10 2
51 11 5
51 13 1
51 14 3
51 17 4
51 18 1
51 20 1
51 26 4
51 28 5
51 34 3
51 38 1
51 39 1
51 40 3
51 41 3
51 43 2
51 44 4
51 45 2
52 2 1
52 3 2
52 4 3
52 5 3
52 6 2
52 7 2
52 8 1
52 13 1
52 14 4
52 16 3
52 18 4
52 19 5
52 22 5
52 23 5
52 25 3
52 27 5
52 29 1
52 30 1
52 32 2
52 33 2
52 34 3
52 35 3
52 36 3
52 37 4
52 38 2
52 40 5
52 41 2
52 42 4
52 43 1
52 45 1
52 47 4
52 49 2
52 51 2
53 0 4
53 1 5
53 3 2
53 5 5
53 6 2
53 8 2
53 9 5
53 10 2
53 11 1
53 12 4
53 13 4
53 14 5
53 15 5
53 16 4
53 20 4
53 23 4
53 24 1
53 27 1
53 29 2
53 32 2
53 34 3
53 35 3
53 36 3
53 37 3
53 38 3
53 44 5
53 49 2
53 50 1
53 51 5
53 52 1
54 1 5
54 2 1
54 5 2
54 6 4
54 8 1
54 9 2
54 10 5
54 11 4
54 12 3
54 15 3
54 17 3
54 19 5
54 22 2
54 23 1
54 24 3
54 26 5
54 27 3
54 28 1
54 29 4
54 30 2
54 31 1
54 33 3
54 35 3
54 36 3
54 39 4
54 40 3
54 41 2
54 42 2
54 44 4
54 50 1
54 52 5
55 1 4
55 7 1
55 12 2
55 17 1
55 18 2
55 19 3
55 21 3
55 23 3
55 26 1
55 27 2
55 29 2
55 32 4
55 33 4
55 34 1
55 35 5
55 36 3
55 37 5
55 41 4
55 43 4
55 45 3
55 46 5
55 47 1
55 48 2
55 51 3
56 0 4
56 5 1
56 8 5
56 11 4
56 13 3
56 14 1
56 15 5
56 16 5
56 17 3
56 18 2
56 20 4
56 22 5
56 24 2
56 25 2
56 26 5
56 30 4
56 33 5
56 37 1
56 38 4
56 40 3
56 41 3
56 42 4
56 43 3
56 45 3
56 48 3
56 49 4
56 51 1
56 53 4
56 54 5
57 0 4
57 1 4
57 3 1
57 4 1
57 5 3
57 6 4
57 7 4
57 9 2
57 10 2
57 11 4
57 12 4
57 13 3
57 19 2
57 21 4
57 22 3
57 26 1
57 27 1
57 31 4
57 33 2
57 35 5
57 37 3
57 38 4
57 40 3
57 44 5
57 45 2
57 46 1
57 49 1
57 51 4
57 52 5
57 56 2
58 0 3
58 2 2
58 5 3
58 6 4
58 7 1
58 10 5
58 11 2
58 13 3
58 14 1
58 15 2
58 16 5
58 18 3
58 21 3
58 24 1
58 25 3
58 26 4
58 28 3
58 31 1
58 32 1
58 36 1
58 38 4
58 39 5
58 40 5
58 42 1
58 43 1
58 44 3
58 46 5
58 48 3
58 49 5
58 50 3
58 53 4
58 54 4
58 57 2
59 0 3
59 1 1
59 5 1
59 6 4
59 7 2
59 8 3
59 9 5
59 11 2
59 13 4
59 14 3
59 15 1
59 17 4
59 18 1
59 21 1
59 22 2
59 23 4
59 26 5
59 27 2
59 29 5
59 30 1
59 34 4
59 37 1
59 39 3
59 40 2
59 41 4
59 43 5
59 47 4
59 49 2
59 50 5
59 51 5
59 54 3
59 55 4
59 56 2
59 58 5
